\ Model qp
\ LP format - for model browsing. Use MPS format to capture full model detail.
Minimize
  IS0 + IS1 + IS2 + IS3 + IS4 + IS5 + IS6 + IS7 + IS8 + IS9 + IS10 + IS11
   + IS12 + IS13 + IS14 + IS15
Subject To
 Predicate-C-0.2: IS0 >= 0
 Predicate-C-1.2: IS1 >= 0
 Predicate-C-2.2: IS2 >= 0
 Predicate-C-3.2: IS3 >= 0.03357088
 Predicate-C-4.2: IS4 >= 0.05776512
 Predicate-C-5.2: IS5 >= 0
 Predicate-C-6.2: IS6 >= 0
 Predicate-C-7.2: IS7 >= 0
 Predicate-C-8.2: IS8 >= 0
 Predicate-C-9.2: IS9 >= 0
 Predicate-C-10.2: IS10 >= 0
 Predicate-C-11.2: IS11 >= 0
 Predicate-C-12.2: IS12 >= 0
 Predicate-C-13.2: IS13 >= 0
 Predicate-C-14.2: IS14 >= 0
 Predicate-C-15.2: IS15 >= 0
Bounds
 IS0 free
 IS1 free
 IS2 free
 IS3 free
 IS4 free
 IS5 free
 IS6 free
 IS7 free
 IS8 free
 IS9 free
 IS10 free
 IS11 free
 IS12 free
 IS13 free
 IS14 free
 IS15 free
End
